CMD:
./solvers/bin/cadical --plain --no-reduce -t 1600 ./data/cnfs//eijks953/eijks953.60.cnf

c --- [ banner ] -------------------------------------------------------------
c 
c CaDiCaL SAT Solver
c Copyright (c) 2016-2024
c A. Biere, M. Fleury, N. Froleyks, K. Fazekas, F. Pollitt, T. Faller
c JKU Linz, University of Freiburg, TU Wien
c 
c Version 2.1.3 5296d3d2a9bf48c154ab2acb5e44625776d821bf
c g++ (Gentoo 12.3.1_p20230526 p2) 12.3.1 20230526 -Wall -Wextra -O3 -DNDEBUG
c Sat Aug 9 07:26:21 PDT 2025 Linux cedar2.int.cedar.computecanada.ca 5.14.0-362.24.2.el9_3.x86_64 x86_64
c 
c --- [ limit ] --------------------------------------------------------------
c 
c setting time limit to 1600 seconds real time (due to '-t 1600')
c 
c --- [ parsing input ] ------------------------------------------------------
c 
c reading DIMACS file from './data/cnfs//eijks953/eijks953.60.cnf'
c opening file to read './data/cnfs//eijks953/eijks953.60.cnf'
c found 'p cnf 53480 157119' header
c parsed 157119 clauses in 0.03 seconds process time
c 
c --- [ options ] ------------------------------------------------------------
c 
c   --compact=false                (different from default 'true')
c   --decompose=false              (different from default 'true')
c   --deduplicate=false            (different from default 'true')
c   --elim=false                   (different from default 'true')
c   --probe=false                  (different from default 'true')
c   --reduce=false                 (different from default 'true')
c   --subsume=false                (different from default 'true')
c   --ternary=false                (different from default 'true')
c   --transred=false               (different from default 'true')
c   --vivify=false                 (different from default 'true')
c 
c --- [ solving ] ------------------------------------------------------------
c 
c time measured in process time since initialization
c 
c  seconds  reductions  redundant  irredundant
c         MB    restarts       trail       variables
c          level   conflicts       glue         remaining
c 
c *  0.03 28  0 0   0    0    0  0% 0 154980 46822 88%
c {  0.04 28  0 0   0    0    0  0% 0 154980 46822 88%
c i  0.04 28 17 0   0   10    9 15% 2 154980 46821 88%
c i  0.05 28 17 0   0   11    9 15% 2 154980 46819 88%
c i  0.05 28 25 0   3  180  162 16% 3 154980 46817 88%
c i  0.05 28 25 0   3  181  162 16% 3 154980 46814 88%
c i  0.05 28 28 0  11  264  238 16% 3 154980 46810 88%
c i  0.08 29 253 0  24  584  549 36% 3 154980 46475 87%
c }  0.10 29 213 0 103 1000  912 35% 3 154980 46414 87%
c [  0.10 29  0 0 103 1000  912  0% 0 154980 46414 87%
c i  0.10 29 203 0 103 1003  914 88% 1 154980 46019 86%
c O  0.11 29 353 0 103 1004  915 91% 2 154980 46019 86%
c ]  0.30 30 575 0 104 3001 2611 91% 5 154980 46019 86%
c {  0.30 30 213 0 104 3001 2611 35% 3 154980 46019 86%
c F  0.30 30 213 0 104 3005 2615 35% 3 154980 46019 86%
c i  0.31 30 187 0 118 3174 2775 34% 3 154980 46008 86%
c i  0.33 30 147 0 213 3531 3099 30% 4 154980 45991 86%
c i  0.35 30 126 0 277 3965 3484 29% 4 154980 45986 86%
c i  0.45 30 111 0 388 5605 4983 34% 4 154980 45984 86%
c i  0.47 30 107 0 431 6009 5336 34% 4 154980 45970 86%
c 
c  seconds   reductions  redundant  irredundant
c         MB     restarts       trail       variables
c           level   conflicts       glue         remaining
c 
c #  0.47 30 107 0 431 6010 5337 34% 4 154980 45970 86%
c i  0.49 30 108 0 431 6270 5572 35% 4 154980 45966 86%
c }  0.53 30 120 0 435 7002 6218 39% 4 154980 45964 86%
c [  0.53 30 575 0 435 7002 6218 91% 5 154980 45964 86%
c I  0.73 31 393 0 437 10011 8944 70% 6 154980 45964 86%
c i  0.78 31 360 0 438 10860 9719 67% 6 154980 45850 86%
c ]  1.12 32 308 0 440 15003 13480 64% 6 154980 45850 86%
c {  1.12 32 120 0 440 15003 13480 39% 4 154980 45850 86%
c B  1.12 32 120 0 440 15012 13488 39% 4 154980 45850 86%
c i  1.31 32 99 0 785 16670 14989 36% 4 154980 45847 86%
c W  2.06 33 93 0 1381 21013 18927 36% 4 136463 45847 86%
c i  2.27 33 92 0 1471 22344 20161 37% 4 136463 45778 86%
c i  2.35 33 90 0 1517 22699 20475 37% 4 136463 45777 86%
c i  2.37 33 89 0 1522 22765 20530 37% 4 136463 45776 86%
c i  2.64 33 90 0 1664 24337 21971 38% 4 136463 45775 86%
c i  2.68 33 90 0 1672 24765 22353 39% 4 136463 45641 85%
c i  3.05 33 87 0 1870 26088 23533 39% 4 136463 45366 85%
c F  3.45 33 85 0 2075 28014 25315 39% 4 136463 45366 85%
c i  3.54 33 83 0 2193 28609 25851 38% 4 136463 45365 85%
c i  3.55 33 83 0 2193 28671 25905 38% 4 136463 45364 85%
c 
c  seconds  reductions     redundant  irredundant
c         MB    restarts          trail       variables
c          level     conflicts        glue         remaining
c 
c }  4.04 33 79 0 2414 31003 28038 40% 4 136463 45364 85%
c [  4.04 33 308 0 2414 31003 28038 64% 6 136463 45364 85%
c B  4.80 34 230 0 2417 36018 32564 64% 6 136463 45364 85%
c W  6.13 43 164 0 2421 45019 40371 57% 7 134819 45364 85%
c i  7.03 43 128 0 2422 53639 47712 53% 7 134819 45152 84%
c i  7.11 44 125 0 2423 54638 48575 54% 7 134819 44601 83%
c i  7.11 44 125 0 2423 54677 48589 54% 7 134819 44339 83%
c ]  7.11 44 125 0 2423 54679 48589 54% 7 134819 43055 81%
c 0  7.11 44 125 0 2423 54679 48589 54% 7 134819 43055 81%
c 
c --- [ result ] -------------------------------------------------------------
c 
s UNSATISFIABLE
c 
c --- [ run-time profiling ] -------------------------------------------------
c 
c process time taken by individual solving procedures
c (percentage relative to process time for solving)
c 
c         7.08  100.00% search
c         3.76   53.06% stable
c         3.12   44.07% unstable
c         0.19    2.65% walk
c         0.03    0.39% parse
c         0.02    0.22% lucky
c         0.00    0.00% simplify
c   =================================
c         7.08   99.60% solve
c 
c last line shows process time for solving
c (percentage relative to total process time)
c 
c --- [ statistics ] ---------------------------------------------------------
c 
c chronological:             20253        37.04 %  of conflicts
c conflicts:                 54679      7717.86    per second
c decisions:                166323     23476.24    per second
c fixed:                     10425        19.49 %  of all variables
c learned:                   52947        96.83 %  per conflict
c learned_lits:            1542375       100.00 %  learned literals
c minimized:                     0         0.00 %  learned literals
c shrunken:                 286487        18.57 %  learned literals
c minishrunken:             382147        24.78 %  learned literals
c otfs:                        384         0.70 %  of conflict
c propagations:           57495225         8.12 M  per second
c rephased:                      9      6075.44    interval
c restarts:                   2423        22.57    interval
c stabilizing:                   3        61.58 %  of conflicts
c subsumed:                   4109         1.98 %  of all clauses
c strengthened:                377         0.18 %  of all clauses
c walked:                        2     27339.50    interval
c 
c seconds are measured in process time for solving
c 
c --- [ resources ] ----------------------------------------------------------
c 
c total process time since initialization:         7.11    seconds
c total real time since initialization:            7.17    seconds
c maximum resident set size of process:           41.84    MB
c 
c --- [ shutting down ] ------------------------------------------------------
c 
c exit 20
